# Solution for model count
# Objective value = 10
z#1 0
z#2 0
z#3 0
z#4 1
z#5 0
z#6 1
z#7 1
z#8 1
z#9 0
z#10 0
z#11 1
z#12 1
z#13 0
z#14 0
z#15 1
z#16 0
z#17 0
z#18 0
z#19 1
z#20 0
z#21 0
z#22 1
z#23 0
z#24 1
x#24 634
x#23 0
x#22 517
x#21 0
x#20 0
x#19 436
x#18 0
x#17 0
x#16 0
x#15 1406
x#14 0
x#13 0
x#12 184
x#11 600
x#10 0
x#9 0
x#8 3421
x#7 541
x#6 382
x#5 0
x#4 1879
x#3 0
x#2 0
x#1 0
